% Número total de personas
n = 100;

% Número de opiniones posibles
m = 5;

% Distribución inicial de personas por opinión
p = [14, 23, 31, 28, 4];

% Valores de las opiniones
v = [0.315, 0.347, 0.567, 0.946, 0.988];

% Costos extras al mover a opiniones vacías
ce = [13.952, 11.091, 10.422, 17.855, 18.476];

% Matriz de costos de mover de una opinión a otra
C = array2d(1..5, 1..5,
  [
    0.000,    1.768,    1.884,    1.473,    1.724,
    3.345,    0.000,    3.991,    1.570,    4.341,
    0.785,    0.056,    0.000,    0.200,    3.692,
    2.634,    3.112,    5.765,    0.000,    4.195,
    0.255,    4.793,    4.841,    3.383,    0.000
  ]);

% Costo total máximo permitido
C_max = 5.820;

% Número máximo de movimientos permitidos
M_max = 38;
